200
200 200
1 140 503
2 140 503
3 140 401
4 139 129
5 139 293
6 139 673
7 139 905
8 138 41
9 138 757
10 138 505
11 138 385
12 137 59
13 137 717
14 137 340
15 137 947
16 136 552
17 135 448
18 135 886
19 134 704
20 134 481
21 134 953
22 133 160
23 133 735
24 132 316
25 132 692
26 130 413
27 130 532
28 129 828
29 129 787
30 128 774
31 127 485
32 127 62
33 126 576
34 126 200
35 125 987
36 124 880
37 122 269
38 120 170
39 120 996
40 119 706
41 118 712
42 117 407
43 117 189
44 116 903
45 115 865
46 114 567
47 114 61
48 114 982
49 113 531
50 113 193
51 111 966
52 110 573
53 110 413
54 108 34
55 107 956
56 107 551
57 105 14
58 103 722
59 102 176
60 101 619
61 101 686
62 100 947
63 100 985
64 99 891
65 99 732
66 98 433
67 97 464
68 96 659
69 96 463
70 95 506
71 94 924
72 94 526
73 93 834
74 92 236
75 92 63
76 91 51
77 91 799
78 90 253
79 90 882
80 90 16
81 89 969
82 86 787
83 85 926
84 84 170
85 84 608
86 84 118
87 83 238
88 83 677
89 80 664
90 80 259
91 80 54
92 80 74
93 79 350
94 79 590
95 79 48
96 79 979
97 78 674
98 78 264
99 77 985
100 76 611
101 75 229
102 74 67
103 74 118
104 73 934
105 73 616
106 73 685
107 72 236
108 72 762
109 72 135
110 72 733
111 70 781
112 70 512
113 70 641
114 69 642
115 69 85
116 69 76
117 69 856
118 67 878
119 67 456
120 66 331
121 66 491
122 66 110
123 65 260
124 65 317
125 65 296
126 64 470
127 63 0
128 63 659
129 63 792
130 61 38
131 61 220
132 61 869
133 61 596
134 61 107
135 60 187
136 60 506
137 59 174
138 58 813
139 57 796
140 57 161
141 57 234
142 56 799
143 56 428
144 55 443
145 54 872
146 53 837
147 53 825
148 50 878
149 50 269
150 48 345
151 47 681
152 45 945
153 45 488
154 45 472
155 44 641
156 42 242
157 42 748
158 41 484
159 40 574
160 40 454
161 39 316
162 39 130
163 39 827
164 38 920
165 37 971
166 37 290
167 36 321
168 36 882
169 35 327
170 34 201
171 34 614
172 34 879
173 33 339
174 33 767
175 33 315
176 32 437
177 32 578
178 32 867
179 31 320
180 31 604
181 30 673
182 30 901
183 30 336
184 29 535
185 28 332
186 27 160
187 27 639
188 27 648
189 26 735
190 26 660
191 26 440
192 26 78
193 26 169
194 25 56
195 25 88
196 23 50
197 23 36
198 22 608
199 22 780
200 22 570
